100
128
41
20
33
12
63
57
2
8
3
41
14
47
61
18
18
24
31
9
20
8
53
34
19
20
53
15
43
26
13
48
19
25
40
6
16
47
2
13
26
1
1
56
49
33
44
46
21
27
1
34
19
8
37
55
8
40
57
27
3
20
57
39
59
42
53
52
11
49
61
4
35
15
40
52
39
57
21
7
58
20
6
45
3
3
8
64
16
4
33
47
50
53
24
52
17
29
62
30
32
60